c description: Random 3-CNF over 12 variables and 24 clauses
p cnf 12 24
-1 5 -8 0
-2 6 7 0
-1 -10 -11 0
-4 9 12 0
-1 5 10 0
-2 8 10 0
5 -6 9 0
3 8 11 0
7 8 12 0
-1 3 11 0
-3 4 -7 0
-6 10 11 0
2 -6 -11 0
2 -10 11 0
3 4 6 0
-2 -5 -7 0
-3 6 12 0
-5 7 10 0
5 7 8 0
-1 2 4 0
-3 4 -10 0
-3 7 11 0
2 -6 12 0
7 9 12 0